SYSYTEM = CO vibration
ISMEAR = 0
IBRION = 5
NFREE = 2
POTIM = 0.02
NSW =1
