CO vibration
1.0
8.0 0.0 0.0
0.0 8.0 0.0
0.0 0.0 8.0
1 1
sel
cart
0 0 0 F F T
0 0 1.143 F F T
