SYSTEM = CO partial DOS
ISMEAR = 0
LORBIT = 11
