CO
1
8 0 0
0 8 0
0 0 8
1 1
sel
c
0 0 0 F F T
0 0 1.143 F F T
