CO molecule in a box                    
   1.00000000000000     
     8.0000000000000000    0.0000000000000000    0.0000000000000000
     0.0000000000000000    8.0000000000000000    0.0000000000000000
     0.0000000000000000    0.0000000000000000    8.0000000000000000
   O    C 
     1     1
Direct
  0.0000000000000000  0.0000000000000000 -0.0016582871185324
  0.0000000000000000  0.0000000000000000  0.1416582871185330
 
  0.00000000E+00  0.00000000E+00  0.00000000E+00
  0.00000000E+00  0.00000000E+00  0.00000000E+00
