SYSTEM H2O
EMAX = 400
ISMEAR = 0
SIGMA = 0.1
IBRION = 1
NFREE = 2
NSW = 10
EDIFFG = -0.02
