H2O
0.52918
15 0 0
0 15 15
0 0 15
1 2
select
cart
0 0 0 F F F
1.1 -1.43 0 T T F
1.1 1.43 0 T T F
