SYSTEM = O atom in a box
ISMEAR = 0  ! Gaussian smearing
ISPIN = 2  ! the O atom has 2 unpaired electrons
