 dimer in a box                         
   1.00000000000000     
     8.0000000000000000    0.0000000000000000    0.0000000000000000
     0.0000000000000000    8.0000000000000000    0.0000000000000000
     0.0000000000000000    0.0000000000000000    8.0000000000000000
   O 
     2
Direct
  0.0000000000000000  0.0000000000000000  0.9990805510106000
  0.0000000000000000  0.0000000000000000  0.1534194489894034
 
  0.00000000E+00  0.00000000E+00  0.00000000E+00
  0.00000000E+00  0.00000000E+00  0.00000000E+00
