 dimer in a box                         
   1.00000000000000     
     8.0000000000000000    0.0000000000000000    0.0000000000000000
     0.0000000000000000    8.0000000000000000    0.0000000000000000
     0.0000000000000000    0.0000000000000000    8.0000000000000000
   O 
     2
Direct
  0.0000000000000000  0.0000000000000000 -0.0009194489894016
  0.0000000000000000  0.0000000000000000  0.1534194489894051
